Maximize
  - 1.7500024584248 edge_0_1_0_0 + 0.18047695253244 edge_0_3_0_0
   - 2.5006313162654 edge_0_4_0_0 - 1.32889 edge_0_5_0_0
   - 1.845212526859 edge_0_8_0_0 - 2.9605070902416 edge_0_9_0_0
   - 3.4551565188091 edge_0_16_0_0 - 1.5630557172156 edge_0_18_0_0
   + 0.7072505583604608 edge_1_3_0_0 + 0.3764214681713549 edge_1_4_0_0
   - 0.1693160345125344 edge_1_5_0_0 - 0.3201261868288731 edge_1_6_0_0
   - 0.0672741310452555 edge_1_8_0_0 - 0.1712304340829323 edge_1_9_0_0
   - 0.0733211357967756 edge_1_10_0_0 - 0.3158946197239197 edge_1_11_0_0
   + 0.0877552498957791 edge_1_12_0_0 - 0.3525734340759205 edge_1_14_0_0
   - 0.606630072909027 edge_1_17_0_0 - 0.3498666016612836 edge_1_19_0_0
   + 2.064045652980982 edge_3_1_0_0 + 1.767359882553625 edge_3_4_0_0
   + 1.0769360474832 edge_3_5_0_0 + 0.7019456972164473 edge_3_6_0_0
   - 0.3013533989406396 edge_3_7_0_0 + 0.8190710627803458 edge_3_8_0_0
   + 0.3495756806502447 edge_3_9_0_0 + 0.9677145155895116 edge_3_10_0_0
   + 0.6280373439628577 edge_3_11_0_0 + 0.8245614220637359 edge_3_12_0_0
   + 0.9248381804175602 edge_3_13_0_0 + 0.5628937291093444 edge_3_14_0_0
   - 0.0591510985058073 edge_3_16_0_0 - 0.3596539530547146 edge_3_17_0_0
   + 0.726901471435638 edge_3_18_0_0 + 1.75904894192859 edge_3_19_0_0
   - 0.4631528900953809 edge_4_1_0_0 - 0.2162863836141097 edge_4_3_0_0
   + 0.23611496009714 edge_4_5_0_0 - 0.65555675699564 edge_4_8_0_0
   + 0.006164930241888 edge_5_1_0_0 + 0.5570559305717999 edge_5_3_0_0
   + 0.981283257344 edge_5_4_0_0 + 4.378568551192 edge_5_6_0_0
   + 1.0103362648555 edge_5_7_0_0 + 3.620585662575976 edge_5_8_0_0
   + 2.121274053606593 edge_5_9_0_0 + 0.40858322902642 edge_5_10_0_0
   + 1.497845960873177 edge_5_11_0_0 + 2.755670185499 edge_5_12_0_0
   + 1.6569089803888 edge_5_13_0_0 + 1.117089128669961 edge_5_14_0_0
   + 1.1277553037355 edge_5_16_0_0 - 0.3171147369037104 edge_5_17_0_0
   + 0.0388073820252319 edge_5_18_0_0 + 2.601313871754 edge_5_19_0_0
   - 1.225779823712843 edge_6_1_0_0 - 0.5293286718023342 edge_6_4_0_0
   - 0.23904890483004 edge_6_5_0_0 + 0.00101609647549394 edge_6_7_0_0
   + 0.2206741019168736 edge_6_8_0_0 - 0.7555739600210003 edge_6_9_0_0
   + 0.2163363314630566 edge_6_10_0_0 - 0.3825853676550114 edge_6_11_0_0
   - 0.2202487151762763 edge_8_1_0_0 - 0.0303010194266083 edge_8_3_0_0
   + 0.0611854259997811 edge_8_4_0_0 + 0.7018401575358499 edge_8_5_0_0
   + 1.843531900868827 edge_8_6_0_0 + 3.193464397631308 edge_8_7_0_0
   + 1.92037394366963 edge_8_9_0_0 + 1.942055621563872 edge_8_10_0_0
   + 1.822669134481497 edge_8_11_0_0 + 1.406817807083496 edge_8_12_0_0
   + 2.029770989878997 edge_8_13_0_0 + 1.323534560250922 edge_8_14_0_0
   + 1.165446641417755 edge_8_16_0_0 + 0.0379295995713825 edge_8_17_0_0
   + 0.6136302163225577 edge_8_18_0_0 + 1.14227881843111 edge_8_19_0_0
   - 0.5067425317359241 edge_9_1_0_0 - 0.7074641770722833 edge_9_3_0_0
   - 0.4544425743442157 edge_9_4_0_0 - 0.1951363075311 edge_9_5_0_0
   + 0.1765720036046187 edge_9_6_0_0 + 0.5888753439918684 edge_9_7_0_0
   + 0.1613693194346858 edge_9_8_0_0 + 0.4631896180273802 edge_9_10_0_0
   + 3.007177878164517 edge_9_11_0_0 + 1.741927607055861 edge_9_12_0_0
   + 2.115756541481917 edge_9_13_0_0 + 1.878206421584008 edge_9_14_0_0
   + 0.5121850001561005 edge_9_16_0_0 - 0.4178470714447667 edge_9_17_0_0
   + 0.6120974382707612 edge_9_18_0_0 + 0.8695933259687917 edge_9_19_0_0
   - 0.8724904099949545 edge_10_6_0_0 - 0.565599975461392 edge_10_8_0_0
   + 0.0152922987834607 edge_10_9_0_0 + 0.2984958216751024 edge_10_11_0_0
   - 0.6440010554012991 edge_11_1_0_0 - 0.6532741425605491 edge_11_3_0_0
   - 0.4531767416283118 edge_11_4_0_0 - 0.12583197735024 edge_11_5_0_0
   + 0.1873417136081855 edge_11_6_0_0 + 0.7049603451303768 edge_11_7_0_0
   + 0.4852885178810311 edge_11_8_0_0 + 2.80953239101624 edge_11_9_0_0
   + 1.04073664436237 edge_11_10_0_0 + 1.511373422506735 edge_11_12_0_0
   + 1.455612935544819 edge_11_13_0_0 + 1.313569842371605 edge_11_14_0_0
   + 1.108645624904252 edge_11_16_0_0 - 0.0954711294570886 edge_11_17_0_0
   + 0.4173685784573724 edge_11_18_0_0 + 1.040450158240638 edge_11_19_0_0
   - 0.1008525741075115 edge_12_9_0_0 - 0.6258217514796046 edge_12_10_0_0
   - 0.7737898538628012 edge_12_11_0_0 + 1.026347741844553 edge_12_13_0_0
   + 0.5792046613400483 edge_12_14_0_0 + 0.4018295898657772 edge_12_16_0_0
   - 0.2014605621291946 edge_12_18_0_0 - 0.6571640267070122 edge_13_12_0_0
   - 0.0975325926596761 edge_13_14_0_0 - 0.5824100027052206 edge_13_18_0_0
   - 0.4473823599292568 edge_14_7_0_0 - 0.2927005391348237 edge_14_9_0_0
   - 0.6768381099582212 edge_14_11_0_0 + 0.1835943834987936 edge_14_12_0_0
   + 0.2022881233840823 edge_14_13_0_0 + 1.464662616155965 edge_14_16_0_0
   + 0.6236767461529215 edge_14_17_0_0 + 1.841938250157183 edge_14_18_0_0
   + 1.010810784123991 edge_14_19_0_0 - 1.658459578261401 edge_16_1_0_0
   - 0.626055334132011 edge_16_3_0_0 - 2.083228529296392 edge_16_4_0_0
   - 1.0370314661036 edge_16_5_0_0 + 0.3649748243755331 edge_16_6_0_0
   - 0.5886105635523567 edge_16_7_0_0 - 0.5605823021871311 edge_16_8_0_0
   + 0.0870556523592642 edge_16_9_0_0 + 0.0177919791705152 edge_16_11_0_0
   - 0.0699111183940042 edge_16_12_0_0 - 0.2241414735252309 edge_16_13_0_0
   + 0.2355247989158613 edge_16_14_0_0 + 0.2985881829615076 edge_16_17_0_0
   + 1.471409255295986 edge_16_18_0_0 + 1.858299996827186 edge_16_19_0_0
   - 1.236754965304932 edge_17_3_0_0 - 1.024704115993388 edge_17_14_0_0
   + 0.2685228362666767 edge_17_16_0_0 + 0.4280018529248697 edge_17_18_0_0
   + 0.3377255328456586 edge_17_19_0_0 - 0.8415829886837927 edge_18_1_0_0
   - 0.1660567397766763 edge_18_3_0_0 - 1.026413077265839 edge_18_4_0_0
   - 0.19862383514208 edge_18_5_0_0 - 0.3127543634251229 edge_18_6_0_0
   - 0.683907315516011 edge_18_7_0_0 - 0.4060817023987472 edge_18_8_0_0
   + 0.3074204534339084 edge_18_9_0_0 + 0.0752303240173073 edge_18_11_0_0
   - 0.0700017494659188 edge_18_12_0_0 + 0.2609438401712529 edge_18_13_0_0
   + 1.208329710000813 edge_18_14_0_0 + 1.765985593153136 edge_18_16_0_0
   + 3.954853134391307 edge_18_17_0_0 + 1.328283805747626 edge_18_19_0_0
   - 0.8131401082954743 edge_19_17_0_0 - 1.172226883248379 edge_19_18_0_0
Subject To
 one_parent_1: edge_0_1_0_0 + edge_3_1_0_0 + edge_4_1_0_0 + edge_5_1_0_0
   + edge_6_1_0_0 + edge_8_1_0_0 + edge_9_1_0_0 + edge_11_1_0_0
   + edge_16_1_0_0 + edge_18_1_0_0 = 1
 consume_one_flow_unit_1: flow_0_1_0_0 - flow_1_3_0_0 - flow_1_4_0_0
   - flow_1_5_0_0 - flow_1_6_0_0 - flow_1_8_0_0 - flow_1_9_0_0
   - flow_1_10_0_0 - flow_1_11_0_0 - flow_1_12_0_0 - flow_1_14_0_0
   - flow_1_17_0_0 - flow_1_19_0_0 + flow_3_1_0_0 + flow_4_1_0_0
   + flow_5_1_0_0 + flow_6_1_0_0 + flow_8_1_0_0 + flow_9_1_0_0
   + flow_11_1_0_0 + flow_16_1_0_0 + flow_18_1_0_0 = 1
 one_parent_2: = 1
 consume_one_flow_unit_2: = 1
 one_parent_3: edge_0_3_0_0 + edge_1_3_0_0 + edge_4_3_0_0 + edge_5_3_0_0
   + edge_8_3_0_0 + edge_9_3_0_0 + edge_11_3_0_0 + edge_16_3_0_0
   + edge_17_3_0_0 + edge_18_3_0_0 = 1
 consume_one_flow_unit_3: flow_0_3_0_0 + flow_1_3_0_0 - flow_3_1_0_0
   - flow_3_4_0_0 - flow_3_5_0_0 - flow_3_6_0_0 - flow_3_7_0_0
   - flow_3_8_0_0 - flow_3_9_0_0 - flow_3_10_0_0 - flow_3_11_0_0
   - flow_3_12_0_0 - flow_3_13_0_0 - flow_3_14_0_0 - flow_3_16_0_0
   - flow_3_17_0_0 - flow_3_18_0_0 - flow_3_19_0_0 + flow_4_3_0_0
   + flow_5_3_0_0 + flow_8_3_0_0 + flow_9_3_0_0 + flow_11_3_0_0
   + flow_16_3_0_0 + flow_17_3_0_0 + flow_18_3_0_0 = 1
 one_parent_4: edge_0_4_0_0 + edge_1_4_0_0 + edge_3_4_0_0 + edge_5_4_0_0
   + edge_6_4_0_0 + edge_8_4_0_0 + edge_9_4_0_0 + edge_11_4_0_0
   + edge_16_4_0_0 + edge_18_4_0_0 = 1
 consume_one_flow_unit_4: flow_0_4_0_0 + flow_1_4_0_0 + flow_3_4_0_0
   - flow_4_1_0_0 - flow_4_3_0_0 - flow_4_5_0_0 - flow_4_8_0_0
   + flow_5_4_0_0 + flow_6_4_0_0 + flow_8_4_0_0 + flow_9_4_0_0
   + flow_11_4_0_0 + flow_16_4_0_0 + flow_18_4_0_0 = 1
 one_parent_5: edge_0_5_0_0 + edge_1_5_0_0 + edge_3_5_0_0 + edge_4_5_0_0
   + edge_6_5_0_0 + edge_8_5_0_0 + edge_9_5_0_0 + edge_11_5_0_0
   + edge_16_5_0_0 + edge_18_5_0_0 = 1
 consume_one_flow_unit_5: flow_0_5_0_0 + flow_1_5_0_0 + flow_3_5_0_0
   + flow_4_5_0_0 - flow_5_1_0_0 - flow_5_3_0_0 - flow_5_4_0_0
   - flow_5_6_0_0 - flow_5_7_0_0 - flow_5_8_0_0 - flow_5_9_0_0
   - flow_5_10_0_0 - flow_5_11_0_0 - flow_5_12_0_0 - flow_5_13_0_0
   - flow_5_14_0_0 - flow_5_16_0_0 - flow_5_17_0_0 - flow_5_18_0_0
   - flow_5_19_0_0 + flow_6_5_0_0 + flow_8_5_0_0 + flow_9_5_0_0
   + flow_11_5_0_0 + flow_16_5_0_0 + flow_18_5_0_0 = 1
 one_parent_6: edge_1_6_0_0 + edge_3_6_0_0 + edge_5_6_0_0 + edge_8_6_0_0
   + edge_9_6_0_0 + edge_10_6_0_0 + edge_11_6_0_0 + edge_16_6_0_0
   + edge_18_6_0_0 = 1
 consume_one_flow_unit_6: flow_1_6_0_0 + flow_3_6_0_0 + flow_5_6_0_0
   - flow_6_1_0_0 - flow_6_4_0_0 - flow_6_5_0_0 - flow_6_7_0_0
   - flow_6_8_0_0 - flow_6_9_0_0 - flow_6_10_0_0 - flow_6_11_0_0
   + flow_8_6_0_0 + flow_9_6_0_0 + flow_10_6_0_0 + flow_11_6_0_0
   + flow_16_6_0_0 + flow_18_6_0_0 = 1
 one_parent_7: edge_3_7_0_0 + edge_5_7_0_0 + edge_6_7_0_0 + edge_8_7_0_0
   + edge_9_7_0_0 + edge_11_7_0_0 + edge_14_7_0_0 + edge_16_7_0_0
   + edge_18_7_0_0 = 1
 consume_one_flow_unit_7: flow_3_7_0_0 + flow_5_7_0_0 + flow_6_7_0_0
   + flow_8_7_0_0 + flow_9_7_0_0 + flow_11_7_0_0 + flow_14_7_0_0
   + flow_16_7_0_0 + flow_18_7_0_0 = 1
 one_parent_8: edge_0_8_0_0 + edge_1_8_0_0 + edge_3_8_0_0 + edge_4_8_0_0
   + edge_5_8_0_0 + edge_6_8_0_0 + edge_9_8_0_0 + edge_10_8_0_0
   + edge_11_8_0_0 + edge_16_8_0_0 + edge_18_8_0_0 = 1
 consume_one_flow_unit_8: flow_0_8_0_0 + flow_1_8_0_0 + flow_3_8_0_0
   + flow_4_8_0_0 + flow_5_8_0_0 + flow_6_8_0_0 - flow_8_1_0_0
   - flow_8_3_0_0 - flow_8_4_0_0 - flow_8_5_0_0 - flow_8_6_0_0
   - flow_8_7_0_0 - flow_8_9_0_0 - flow_8_10_0_0 - flow_8_11_0_0
   - flow_8_12_0_0 - flow_8_13_0_0 - flow_8_14_0_0 - flow_8_16_0_0
   - flow_8_17_0_0 - flow_8_18_0_0 - flow_8_19_0_0 + flow_9_8_0_0
   + flow_10_8_0_0 + flow_11_8_0_0 + flow_16_8_0_0 + flow_18_8_0_0 = 1
 one_parent_9: edge_0_9_0_0 + edge_1_9_0_0 + edge_3_9_0_0 + edge_5_9_0_0
   + edge_6_9_0_0 + edge_8_9_0_0 + edge_10_9_0_0 + edge_11_9_0_0
   + edge_12_9_0_0 + edge_14_9_0_0 + edge_16_9_0_0 + edge_18_9_0_0 = 1
 consume_one_flow_unit_9: flow_0_9_0_0 + flow_1_9_0_0 + flow_3_9_0_0
   + flow_5_9_0_0 + flow_6_9_0_0 + flow_8_9_0_0 - flow_9_1_0_0
   - flow_9_3_0_0 - flow_9_4_0_0 - flow_9_5_0_0 - flow_9_6_0_0
   - flow_9_7_0_0 - flow_9_8_0_0 - flow_9_10_0_0 - flow_9_11_0_0
   - flow_9_12_0_0 - flow_9_13_0_0 - flow_9_14_0_0 - flow_9_16_0_0
   - flow_9_17_0_0 - flow_9_18_0_0 - flow_9_19_0_0 + flow_10_9_0_0
   + flow_11_9_0_0 + flow_12_9_0_0 + flow_14_9_0_0 + flow_16_9_0_0
   + flow_18_9_0_0 = 1
 one_parent_10: edge_1_10_0_0 + edge_3_10_0_0 + edge_5_10_0_0
   + edge_6_10_0_0 + edge_8_10_0_0 + edge_9_10_0_0 + edge_11_10_0_0
   + edge_12_10_0_0 = 1
 consume_one_flow_unit_10: flow_1_10_0_0 + flow_3_10_0_0 + flow_5_10_0_0
   + flow_6_10_0_0 + flow_8_10_0_0 + flow_9_10_0_0 - flow_10_6_0_0
   - flow_10_8_0_0 - flow_10_9_0_0 - flow_10_11_0_0 + flow_11_10_0_0
   + flow_12_10_0_0 = 1
 one_parent_11: edge_1_11_0_0 + edge_3_11_0_0 + edge_5_11_0_0
   + edge_6_11_0_0 + edge_8_11_0_0 + edge_9_11_0_0 + edge_10_11_0_0
   + edge_12_11_0_0 + edge_14_11_0_0 + edge_16_11_0_0 + edge_18_11_0_0 = 1
 consume_one_flow_unit_11: flow_1_11_0_0 + flow_3_11_0_0 + flow_5_11_0_0
   + flow_6_11_0_0 + flow_8_11_0_0 + flow_9_11_0_0 + flow_10_11_0_0
   - flow_11_1_0_0 - flow_11_3_0_0 - flow_11_4_0_0 - flow_11_5_0_0
   - flow_11_6_0_0 - flow_11_7_0_0 - flow_11_8_0_0 - flow_11_9_0_0
   - flow_11_10_0_0 - flow_11_12_0_0 - flow_11_13_0_0 - flow_11_14_0_0
   - flow_11_16_0_0 - flow_11_17_0_0 - flow_11_18_0_0 - flow_11_19_0_0
   + flow_12_11_0_0 + flow_14_11_0_0 + flow_16_11_0_0 + flow_18_11_0_0 = 1
 one_parent_12: edge_1_12_0_0 + edge_3_12_0_0 + edge_5_12_0_0
   + edge_8_12_0_0 + edge_9_12_0_0 + edge_11_12_0_0 + edge_13_12_0_0
   + edge_14_12_0_0 + edge_16_12_0_0 + edge_18_12_0_0 = 1
 consume_one_flow_unit_12: flow_1_12_0_0 + flow_3_12_0_0 + flow_5_12_0_0
   + flow_8_12_0_0 + flow_9_12_0_0 + flow_11_12_0_0 - flow_12_9_0_0
   - flow_12_10_0_0 - flow_12_11_0_0 - flow_12_13_0_0 - flow_12_14_0_0
   - flow_12_16_0_0 - flow_12_18_0_0 + flow_13_12_0_0 + flow_14_12_0_0
   + flow_16_12_0_0 + flow_18_12_0_0 = 1
 one_parent_13: edge_3_13_0_0 + edge_5_13_0_0 + edge_8_13_0_0
   + edge_9_13_0_0 + edge_11_13_0_0 + edge_12_13_0_0 + edge_14_13_0_0
   + edge_16_13_0_0 + edge_18_13_0_0 = 1
 consume_one_flow_unit_13: flow_3_13_0_0 + flow_5_13_0_0 + flow_8_13_0_0
   + flow_9_13_0_0 + flow_11_13_0_0 + flow_12_13_0_0 - flow_13_12_0_0
   - flow_13_14_0_0 - flow_13_18_0_0 + flow_14_13_0_0 + flow_16_13_0_0
   + flow_18_13_0_0 = 1
 one_parent_14: edge_1_14_0_0 + edge_3_14_0_0 + edge_5_14_0_0
   + edge_8_14_0_0 + edge_9_14_0_0 + edge_11_14_0_0 + edge_12_14_0_0
   + edge_13_14_0_0 + edge_16_14_0_0 + edge_17_14_0_0 + edge_18_14_0_0 = 1
 consume_one_flow_unit_14: flow_1_14_0_0 + flow_3_14_0_0 + flow_5_14_0_0
   + flow_8_14_0_0 + flow_9_14_0_0 + flow_11_14_0_0 + flow_12_14_0_0
   + flow_13_14_0_0 - flow_14_7_0_0 - flow_14_9_0_0 - flow_14_11_0_0
   - flow_14_12_0_0 - flow_14_13_0_0 - flow_14_16_0_0 - flow_14_17_0_0
   - flow_14_18_0_0 - flow_14_19_0_0 + flow_16_14_0_0 + flow_17_14_0_0
   + flow_18_14_0_0 = 1
 one_parent_15: = 1
 consume_one_flow_unit_15: = 1
 one_parent_16: edge_0_16_0_0 + edge_3_16_0_0 + edge_5_16_0_0
   + edge_8_16_0_0 + edge_9_16_0_0 + edge_11_16_0_0 + edge_12_16_0_0
   + edge_14_16_0_0 + edge_17_16_0_0 + edge_18_16_0_0 = 1
 consume_one_flow_unit_16: flow_0_16_0_0 + flow_3_16_0_0 + flow_5_16_0_0
   + flow_8_16_0_0 + flow_9_16_0_0 + flow_11_16_0_0 + flow_12_16_0_0
   + flow_14_16_0_0 - flow_16_1_0_0 - flow_16_3_0_0 - flow_16_4_0_0
   - flow_16_5_0_0 - flow_16_6_0_0 - flow_16_7_0_0 - flow_16_8_0_0
   - flow_16_9_0_0 - flow_16_11_0_0 - flow_16_12_0_0 - flow_16_13_0_0
   - flow_16_14_0_0 - flow_16_17_0_0 - flow_16_18_0_0 - flow_16_19_0_0
   + flow_17_16_0_0 + flow_18_16_0_0 = 1
 one_parent_17: edge_1_17_0_0 + edge_3_17_0_0 + edge_5_17_0_0
   + edge_8_17_0_0 + edge_9_17_0_0 + edge_11_17_0_0 + edge_14_17_0_0
   + edge_16_17_0_0 + edge_18_17_0_0 + edge_19_17_0_0 = 1
 consume_one_flow_unit_17: flow_1_17_0_0 + flow_3_17_0_0 + flow_5_17_0_0
   + flow_8_17_0_0 + flow_9_17_0_0 + flow_11_17_0_0 + flow_14_17_0_0
   + flow_16_17_0_0 - flow_17_3_0_0 - flow_17_14_0_0 - flow_17_16_0_0
   - flow_17_18_0_0 - flow_17_19_0_0 + flow_18_17_0_0 + flow_19_17_0_0 = 1
 one_parent_18: edge_0_18_0_0 + edge_3_18_0_0 + edge_5_18_0_0
   + edge_8_18_0_0 + edge_9_18_0_0 + edge_11_18_0_0 + edge_12_18_0_0
   + edge_13_18_0_0 + edge_14_18_0_0 + edge_16_18_0_0 + edge_17_18_0_0
   + edge_19_18_0_0 = 1
 consume_one_flow_unit_18: flow_0_18_0_0 + flow_3_18_0_0 + flow_5_18_0_0
   + flow_8_18_0_0 + flow_9_18_0_0 + flow_11_18_0_0 + flow_12_18_0_0
   + flow_13_18_0_0 + flow_14_18_0_0 + flow_16_18_0_0 + flow_17_18_0_0
   - flow_18_1_0_0 - flow_18_3_0_0 - flow_18_4_0_0 - flow_18_5_0_0
   - flow_18_6_0_0 - flow_18_7_0_0 - flow_18_8_0_0 - flow_18_9_0_0
   - flow_18_11_0_0 - flow_18_12_0_0 - flow_18_13_0_0 - flow_18_14_0_0
   - flow_18_16_0_0 - flow_18_17_0_0 - flow_18_19_0_0 + flow_19_18_0_0 = 1
 one_parent_19: edge_1_19_0_0 + edge_3_19_0_0 + edge_5_19_0_0
   + edge_8_19_0_0 + edge_9_19_0_0 + edge_11_19_0_0 + edge_14_19_0_0
   + edge_16_19_0_0 + edge_17_19_0_0 + edge_18_19_0_0 = 1
 consume_one_flow_unit_19: flow_1_19_0_0 + flow_3_19_0_0 + flow_5_19_0_0
   + flow_8_19_0_0 + flow_9_19_0_0 + flow_11_19_0_0 + flow_14_19_0_0
   + flow_16_19_0_0 + flow_17_19_0_0 + flow_18_19_0_0 - flow_19_17_0_0
   - flow_19_18_0_0 = 1
 root_flow: flow_0_1_0_0 + flow_0_3_0_0 + flow_0_4_0_0 + flow_0_5_0_0
   + flow_0_8_0_0 + flow_0_9_0_0 + flow_0_16_0_0 + flow_0_18_0_0 = 19
 inactive_no_flow_0_1_0_0: flow_0_1_0_0 - 1000 edge_0_1_0_0 <= 0
 inactive_no_flow_0_3_0_0: flow_0_3_0_0 - 1000 edge_0_3_0_0 <= 0
 inactive_no_flow_0_4_0_0: flow_0_4_0_0 - 1000 edge_0_4_0_0 <= 0
 inactive_no_flow_0_5_0_0: flow_0_5_0_0 - 1000 edge_0_5_0_0 <= 0
 inactive_no_flow_0_8_0_0: flow_0_8_0_0 - 1000 edge_0_8_0_0 <= 0
 inactive_no_flow_0_9_0_0: flow_0_9_0_0 - 1000 edge_0_9_0_0 <= 0
 inactive_no_flow_0_16_0_0: flow_0_16_0_0 - 1000 edge_0_16_0_0 <= 0
 inactive_no_flow_0_18_0_0: flow_0_18_0_0 - 1000 edge_0_18_0_0 <= 0
 inactive_no_flow_1_3_0_0: flow_1_3_0_0 - 1000 edge_1_3_0_0 <= 0
 inactive_no_flow_1_4_0_0: flow_1_4_0_0 - 1000 edge_1_4_0_0 <= 0
 inactive_no_flow_1_5_0_0: flow_1_5_0_0 - 1000 edge_1_5_0_0 <= 0
 inactive_no_flow_1_6_0_0: flow_1_6_0_0 - 1000 edge_1_6_0_0 <= 0
 inactive_no_flow_1_8_0_0: flow_1_8_0_0 - 1000 edge_1_8_0_0 <= 0
 inactive_no_flow_1_9_0_0: flow_1_9_0_0 - 1000 edge_1_9_0_0 <= 0
 inactive_no_flow_1_10_0_0: flow_1_10_0_0 - 1000 edge_1_10_0_0 <= 0
 inactive_no_flow_1_11_0_0: flow_1_11_0_0 - 1000 edge_1_11_0_0 <= 0
 inactive_no_flow_1_12_0_0: flow_1_12_0_0 - 1000 edge_1_12_0_0 <= 0
 inactive_no_flow_1_14_0_0: flow_1_14_0_0 - 1000 edge_1_14_0_0 <= 0
 inactive_no_flow_1_17_0_0: flow_1_17_0_0 - 1000 edge_1_17_0_0 <= 0
 inactive_no_flow_1_19_0_0: flow_1_19_0_0 - 1000 edge_1_19_0_0 <= 0
 inactive_no_flow_3_1_0_0: flow_3_1_0_0 - 1000 edge_3_1_0_0 <= 0
 inactive_no_flow_3_4_0_0: flow_3_4_0_0 - 1000 edge_3_4_0_0 <= 0
 inactive_no_flow_3_5_0_0: flow_3_5_0_0 - 1000 edge_3_5_0_0 <= 0
 inactive_no_flow_3_6_0_0: flow_3_6_0_0 - 1000 edge_3_6_0_0 <= 0
 inactive_no_flow_3_7_0_0: flow_3_7_0_0 - 1000 edge_3_7_0_0 <= 0
 inactive_no_flow_3_8_0_0: flow_3_8_0_0 - 1000 edge_3_8_0_0 <= 0
 inactive_no_flow_3_9_0_0: flow_3_9_0_0 - 1000 edge_3_9_0_0 <= 0
 inactive_no_flow_3_10_0_0: flow_3_10_0_0 - 1000 edge_3_10_0_0 <= 0
 inactive_no_flow_3_11_0_0: flow_3_11_0_0 - 1000 edge_3_11_0_0 <= 0
 inactive_no_flow_3_12_0_0: flow_3_12_0_0 - 1000 edge_3_12_0_0 <= 0
 inactive_no_flow_3_13_0_0: flow_3_13_0_0 - 1000 edge_3_13_0_0 <= 0
 inactive_no_flow_3_14_0_0: flow_3_14_0_0 - 1000 edge_3_14_0_0 <= 0
 inactive_no_flow_3_16_0_0: flow_3_16_0_0 - 1000 edge_3_16_0_0 <= 0
 inactive_no_flow_3_17_0_0: flow_3_17_0_0 - 1000 edge_3_17_0_0 <= 0
 inactive_no_flow_3_18_0_0: flow_3_18_0_0 - 1000 edge_3_18_0_0 <= 0
 inactive_no_flow_3_19_0_0: flow_3_19_0_0 - 1000 edge_3_19_0_0 <= 0
 inactive_no_flow_4_1_0_0: flow_4_1_0_0 - 1000 edge_4_1_0_0 <= 0
 inactive_no_flow_4_3_0_0: flow_4_3_0_0 - 1000 edge_4_3_0_0 <= 0
 inactive_no_flow_4_5_0_0: flow_4_5_0_0 - 1000 edge_4_5_0_0 <= 0
 inactive_no_flow_4_8_0_0: flow_4_8_0_0 - 1000 edge_4_8_0_0 <= 0
 inactive_no_flow_5_1_0_0: flow_5_1_0_0 - 1000 edge_5_1_0_0 <= 0
 inactive_no_flow_5_3_0_0: flow_5_3_0_0 - 1000 edge_5_3_0_0 <= 0
 inactive_no_flow_5_4_0_0: flow_5_4_0_0 - 1000 edge_5_4_0_0 <= 0
 inactive_no_flow_5_6_0_0: flow_5_6_0_0 - 1000 edge_5_6_0_0 <= 0
 inactive_no_flow_5_7_0_0: flow_5_7_0_0 - 1000 edge_5_7_0_0 <= 0
 inactive_no_flow_5_8_0_0: flow_5_8_0_0 - 1000 edge_5_8_0_0 <= 0
 inactive_no_flow_5_9_0_0: flow_5_9_0_0 - 1000 edge_5_9_0_0 <= 0
 inactive_no_flow_5_10_0_0: flow_5_10_0_0 - 1000 edge_5_10_0_0 <= 0
 inactive_no_flow_5_11_0_0: flow_5_11_0_0 - 1000 edge_5_11_0_0 <= 0
 inactive_no_flow_5_12_0_0: flow_5_12_0_0 - 1000 edge_5_12_0_0 <= 0
 inactive_no_flow_5_13_0_0: flow_5_13_0_0 - 1000 edge_5_13_0_0 <= 0
 inactive_no_flow_5_14_0_0: flow_5_14_0_0 - 1000 edge_5_14_0_0 <= 0
 inactive_no_flow_5_16_0_0: flow_5_16_0_0 - 1000 edge_5_16_0_0 <= 0
 inactive_no_flow_5_17_0_0: flow_5_17_0_0 - 1000 edge_5_17_0_0 <= 0
 inactive_no_flow_5_18_0_0: flow_5_18_0_0 - 1000 edge_5_18_0_0 <= 0
 inactive_no_flow_5_19_0_0: flow_5_19_0_0 - 1000 edge_5_19_0_0 <= 0
 inactive_no_flow_6_1_0_0: flow_6_1_0_0 - 1000 edge_6_1_0_0 <= 0
 inactive_no_flow_6_4_0_0: flow_6_4_0_0 - 1000 edge_6_4_0_0 <= 0
 inactive_no_flow_6_5_0_0: flow_6_5_0_0 - 1000 edge_6_5_0_0 <= 0
 inactive_no_flow_6_7_0_0: flow_6_7_0_0 - 1000 edge_6_7_0_0 <= 0
 inactive_no_flow_6_8_0_0: flow_6_8_0_0 - 1000 edge_6_8_0_0 <= 0
 inactive_no_flow_6_9_0_0: flow_6_9_0_0 - 1000 edge_6_9_0_0 <= 0
 inactive_no_flow_6_10_0_0: flow_6_10_0_0 - 1000 edge_6_10_0_0 <= 0
 inactive_no_flow_6_11_0_0: flow_6_11_0_0 - 1000 edge_6_11_0_0 <= 0
 inactive_no_flow_8_1_0_0: flow_8_1_0_0 - 1000 edge_8_1_0_0 <= 0
 inactive_no_flow_8_3_0_0: flow_8_3_0_0 - 1000 edge_8_3_0_0 <= 0
 inactive_no_flow_8_4_0_0: flow_8_4_0_0 - 1000 edge_8_4_0_0 <= 0
 inactive_no_flow_8_5_0_0: flow_8_5_0_0 - 1000 edge_8_5_0_0 <= 0
 inactive_no_flow_8_6_0_0: flow_8_6_0_0 - 1000 edge_8_6_0_0 <= 0
 inactive_no_flow_8_7_0_0: flow_8_7_0_0 - 1000 edge_8_7_0_0 <= 0
 inactive_no_flow_8_9_0_0: flow_8_9_0_0 - 1000 edge_8_9_0_0 <= 0
 inactive_no_flow_8_10_0_0: flow_8_10_0_0 - 1000 edge_8_10_0_0 <= 0
 inactive_no_flow_8_11_0_0: flow_8_11_0_0 - 1000 edge_8_11_0_0 <= 0
 inactive_no_flow_8_12_0_0: flow_8_12_0_0 - 1000 edge_8_12_0_0 <= 0
 inactive_no_flow_8_13_0_0: flow_8_13_0_0 - 1000 edge_8_13_0_0 <= 0
 inactive_no_flow_8_14_0_0: flow_8_14_0_0 - 1000 edge_8_14_0_0 <= 0
 inactive_no_flow_8_16_0_0: flow_8_16_0_0 - 1000 edge_8_16_0_0 <= 0
 inactive_no_flow_8_17_0_0: flow_8_17_0_0 - 1000 edge_8_17_0_0 <= 0
 inactive_no_flow_8_18_0_0: flow_8_18_0_0 - 1000 edge_8_18_0_0 <= 0
 inactive_no_flow_8_19_0_0: flow_8_19_0_0 - 1000 edge_8_19_0_0 <= 0
 inactive_no_flow_9_1_0_0: flow_9_1_0_0 - 1000 edge_9_1_0_0 <= 0
 inactive_no_flow_9_3_0_0: flow_9_3_0_0 - 1000 edge_9_3_0_0 <= 0
 inactive_no_flow_9_4_0_0: flow_9_4_0_0 - 1000 edge_9_4_0_0 <= 0
 inactive_no_flow_9_5_0_0: flow_9_5_0_0 - 1000 edge_9_5_0_0 <= 0
 inactive_no_flow_9_6_0_0: flow_9_6_0_0 - 1000 edge_9_6_0_0 <= 0
 inactive_no_flow_9_7_0_0: flow_9_7_0_0 - 1000 edge_9_7_0_0 <= 0
 inactive_no_flow_9_8_0_0: flow_9_8_0_0 - 1000 edge_9_8_0_0 <= 0
 inactive_no_flow_9_10_0_0: flow_9_10_0_0 - 1000 edge_9_10_0_0 <= 0
 inactive_no_flow_9_11_0_0: flow_9_11_0_0 - 1000 edge_9_11_0_0 <= 0
 inactive_no_flow_9_12_0_0: flow_9_12_0_0 - 1000 edge_9_12_0_0 <= 0
 inactive_no_flow_9_13_0_0: flow_9_13_0_0 - 1000 edge_9_13_0_0 <= 0
 inactive_no_flow_9_14_0_0: flow_9_14_0_0 - 1000 edge_9_14_0_0 <= 0
 inactive_no_flow_9_16_0_0: flow_9_16_0_0 - 1000 edge_9_16_0_0 <= 0
 inactive_no_flow_9_17_0_0: flow_9_17_0_0 - 1000 edge_9_17_0_0 <= 0
 inactive_no_flow_9_18_0_0: flow_9_18_0_0 - 1000 edge_9_18_0_0 <= 0
 inactive_no_flow_9_19_0_0: flow_9_19_0_0 - 1000 edge_9_19_0_0 <= 0
 inactive_no_flow_10_6_0_0: flow_10_6_0_0 - 1000 edge_10_6_0_0 <= 0
 inactive_no_flow_10_8_0_0: flow_10_8_0_0 - 1000 edge_10_8_0_0 <= 0
 inactive_no_flow_10_9_0_0: flow_10_9_0_0 - 1000 edge_10_9_0_0 <= 0
 inactive_no_flow_10_11_0_0: flow_10_11_0_0 - 1000 edge_10_11_0_0 <= 0
 inactive_no_flow_11_1_0_0: flow_11_1_0_0 - 1000 edge_11_1_0_0 <= 0
 inactive_no_flow_11_3_0_0: flow_11_3_0_0 - 1000 edge_11_3_0_0 <= 0
 inactive_no_flow_11_4_0_0: flow_11_4_0_0 - 1000 edge_11_4_0_0 <= 0
 inactive_no_flow_11_5_0_0: flow_11_5_0_0 - 1000 edge_11_5_0_0 <= 0
 inactive_no_flow_11_6_0_0: flow_11_6_0_0 - 1000 edge_11_6_0_0 <= 0
 inactive_no_flow_11_7_0_0: flow_11_7_0_0 - 1000 edge_11_7_0_0 <= 0
 inactive_no_flow_11_8_0_0: flow_11_8_0_0 - 1000 edge_11_8_0_0 <= 0
 inactive_no_flow_11_9_0_0: flow_11_9_0_0 - 1000 edge_11_9_0_0 <= 0
 inactive_no_flow_11_10_0_0: flow_11_10_0_0 - 1000 edge_11_10_0_0 <= 0
 inactive_no_flow_11_12_0_0: flow_11_12_0_0 - 1000 edge_11_12_0_0 <= 0
 inactive_no_flow_11_13_0_0: flow_11_13_0_0 - 1000 edge_11_13_0_0 <= 0
 inactive_no_flow_11_14_0_0: flow_11_14_0_0 - 1000 edge_11_14_0_0 <= 0
 inactive_no_flow_11_16_0_0: flow_11_16_0_0 - 1000 edge_11_16_0_0 <= 0
 inactive_no_flow_11_17_0_0: flow_11_17_0_0 - 1000 edge_11_17_0_0 <= 0
 inactive_no_flow_11_18_0_0: flow_11_18_0_0 - 1000 edge_11_18_0_0 <= 0
 inactive_no_flow_11_19_0_0: flow_11_19_0_0 - 1000 edge_11_19_0_0 <= 0
 inactive_no_flow_12_9_0_0: flow_12_9_0_0 - 1000 edge_12_9_0_0 <= 0
 inactive_no_flow_12_10_0_0: flow_12_10_0_0 - 1000 edge_12_10_0_0 <= 0
 inactive_no_flow_12_11_0_0: flow_12_11_0_0 - 1000 edge_12_11_0_0 <= 0
 inactive_no_flow_12_13_0_0: flow_12_13_0_0 - 1000 edge_12_13_0_0 <= 0
 inactive_no_flow_12_14_0_0: flow_12_14_0_0 - 1000 edge_12_14_0_0 <= 0
 inactive_no_flow_12_16_0_0: flow_12_16_0_0 - 1000 edge_12_16_0_0 <= 0
 inactive_no_flow_12_18_0_0: flow_12_18_0_0 - 1000 edge_12_18_0_0 <= 0
 inactive_no_flow_13_12_0_0: flow_13_12_0_0 - 1000 edge_13_12_0_0 <= 0
 inactive_no_flow_13_14_0_0: flow_13_14_0_0 - 1000 edge_13_14_0_0 <= 0
 inactive_no_flow_13_18_0_0: flow_13_18_0_0 - 1000 edge_13_18_0_0 <= 0
 inactive_no_flow_14_7_0_0: flow_14_7_0_0 - 1000 edge_14_7_0_0 <= 0
 inactive_no_flow_14_9_0_0: flow_14_9_0_0 - 1000 edge_14_9_0_0 <= 0
 inactive_no_flow_14_11_0_0: flow_14_11_0_0 - 1000 edge_14_11_0_0 <= 0
 inactive_no_flow_14_12_0_0: flow_14_12_0_0 - 1000 edge_14_12_0_0 <= 0
 inactive_no_flow_14_13_0_0: flow_14_13_0_0 - 1000 edge_14_13_0_0 <= 0
 inactive_no_flow_14_16_0_0: flow_14_16_0_0 - 1000 edge_14_16_0_0 <= 0
 inactive_no_flow_14_17_0_0: flow_14_17_0_0 - 1000 edge_14_17_0_0 <= 0
 inactive_no_flow_14_18_0_0: flow_14_18_0_0 - 1000 edge_14_18_0_0 <= 0
 inactive_no_flow_14_19_0_0: flow_14_19_0_0 - 1000 edge_14_19_0_0 <= 0
 inactive_no_flow_16_1_0_0: flow_16_1_0_0 - 1000 edge_16_1_0_0 <= 0
 inactive_no_flow_16_3_0_0: flow_16_3_0_0 - 1000 edge_16_3_0_0 <= 0
 inactive_no_flow_16_4_0_0: flow_16_4_0_0 - 1000 edge_16_4_0_0 <= 0
 inactive_no_flow_16_5_0_0: flow_16_5_0_0 - 1000 edge_16_5_0_0 <= 0
 inactive_no_flow_16_6_0_0: flow_16_6_0_0 - 1000 edge_16_6_0_0 <= 0
 inactive_no_flow_16_7_0_0: flow_16_7_0_0 - 1000 edge_16_7_0_0 <= 0
 inactive_no_flow_16_8_0_0: flow_16_8_0_0 - 1000 edge_16_8_0_0 <= 0
 inactive_no_flow_16_9_0_0: flow_16_9_0_0 - 1000 edge_16_9_0_0 <= 0
 inactive_no_flow_16_11_0_0: flow_16_11_0_0 - 1000 edge_16_11_0_0 <= 0
 inactive_no_flow_16_12_0_0: flow_16_12_0_0 - 1000 edge_16_12_0_0 <= 0
 inactive_no_flow_16_13_0_0: flow_16_13_0_0 - 1000 edge_16_13_0_0 <= 0
 inactive_no_flow_16_14_0_0: flow_16_14_0_0 - 1000 edge_16_14_0_0 <= 0
 inactive_no_flow_16_17_0_0: flow_16_17_0_0 - 1000 edge_16_17_0_0 <= 0
 inactive_no_flow_16_18_0_0: flow_16_18_0_0 - 1000 edge_16_18_0_0 <= 0
 inactive_no_flow_16_19_0_0: flow_16_19_0_0 - 1000 edge_16_19_0_0 <= 0
 inactive_no_flow_17_3_0_0: flow_17_3_0_0 - 1000 edge_17_3_0_0 <= 0
 inactive_no_flow_17_14_0_0: flow_17_14_0_0 - 1000 edge_17_14_0_0 <= 0
 inactive_no_flow_17_16_0_0: flow_17_16_0_0 - 1000 edge_17_16_0_0 <= 0
 inactive_no_flow_17_18_0_0: flow_17_18_0_0 - 1000 edge_17_18_0_0 <= 0
 inactive_no_flow_17_19_0_0: flow_17_19_0_0 - 1000 edge_17_19_0_0 <= 0
 inactive_no_flow_18_1_0_0: flow_18_1_0_0 - 1000 edge_18_1_0_0 <= 0
 inactive_no_flow_18_3_0_0: flow_18_3_0_0 - 1000 edge_18_3_0_0 <= 0
 inactive_no_flow_18_4_0_0: flow_18_4_0_0 - 1000 edge_18_4_0_0 <= 0
 inactive_no_flow_18_5_0_0: flow_18_5_0_0 - 1000 edge_18_5_0_0 <= 0
 inactive_no_flow_18_6_0_0: flow_18_6_0_0 - 1000 edge_18_6_0_0 <= 0
 inactive_no_flow_18_7_0_0: flow_18_7_0_0 - 1000 edge_18_7_0_0 <= 0
 inactive_no_flow_18_8_0_0: flow_18_8_0_0 - 1000 edge_18_8_0_0 <= 0
 inactive_no_flow_18_9_0_0: flow_18_9_0_0 - 1000 edge_18_9_0_0 <= 0
 inactive_no_flow_18_11_0_0: flow_18_11_0_0 - 1000 edge_18_11_0_0 <= 0
 inactive_no_flow_18_12_0_0: flow_18_12_0_0 - 1000 edge_18_12_0_0 <= 0
 inactive_no_flow_18_13_0_0: flow_18_13_0_0 - 1000 edge_18_13_0_0 <= 0
 inactive_no_flow_18_14_0_0: flow_18_14_0_0 - 1000 edge_18_14_0_0 <= 0
 inactive_no_flow_18_16_0_0: flow_18_16_0_0 - 1000 edge_18_16_0_0 <= 0
 inactive_no_flow_18_17_0_0: flow_18_17_0_0 - 1000 edge_18_17_0_0 <= 0
 inactive_no_flow_18_19_0_0: flow_18_19_0_0 - 1000 edge_18_19_0_0 <= 0
 inactive_no_flow_19_17_0_0: flow_19_17_0_0 - 1000 edge_19_17_0_0 <= 0
 inactive_no_flow_19_18_0_0: flow_19_18_0_0 - 1000 edge_19_18_0_0 <= 0
Bounds
Binaries
 edge_0_1_0_0 edge_0_3_0_0 edge_0_4_0_0 edge_0_5_0_0 edge_0_8_0_0
 edge_0_9_0_0 edge_0_16_0_0 edge_0_18_0_0 edge_1_3_0_0 edge_1_4_0_0
 edge_1_5_0_0 edge_1_6_0_0 edge_1_8_0_0 edge_1_9_0_0 edge_1_10_0_0
 edge_1_11_0_0 edge_1_12_0_0 edge_1_14_0_0 edge_1_17_0_0 edge_1_19_0_0
 edge_3_1_0_0 edge_3_4_0_0 edge_3_5_0_0 edge_3_6_0_0 edge_3_7_0_0
 edge_3_8_0_0 edge_3_9_0_0 edge_3_10_0_0 edge_3_11_0_0 edge_3_12_0_0
 edge_3_13_0_0 edge_3_14_0_0 edge_3_16_0_0 edge_3_17_0_0 edge_3_18_0_0
 edge_3_19_0_0 edge_4_1_0_0 edge_4_3_0_0 edge_4_5_0_0 edge_4_8_0_0
 edge_5_1_0_0 edge_5_3_0_0 edge_5_4_0_0 edge_5_6_0_0 edge_5_7_0_0
 edge_5_8_0_0 edge_5_9_0_0 edge_5_10_0_0 edge_5_11_0_0 edge_5_12_0_0
 edge_5_13_0_0 edge_5_14_0_0 edge_5_16_0_0 edge_5_17_0_0 edge_5_18_0_0
 edge_5_19_0_0 edge_6_1_0_0 edge_6_4_0_0 edge_6_5_0_0 edge_6_7_0_0
 edge_6_8_0_0 edge_6_9_0_0 edge_6_10_0_0 edge_6_11_0_0 edge_8_1_0_0
 edge_8_3_0_0 edge_8_4_0_0 edge_8_5_0_0 edge_8_6_0_0 edge_8_7_0_0
 edge_8_9_0_0 edge_8_10_0_0 edge_8_11_0_0 edge_8_12_0_0 edge_8_13_0_0
 edge_8_14_0_0 edge_8_16_0_0 edge_8_17_0_0 edge_8_18_0_0 edge_8_19_0_0
 edge_9_1_0_0 edge_9_3_0_0 edge_9_4_0_0 edge_9_5_0_0 edge_9_6_0_0
 edge_9_7_0_0 edge_9_8_0_0 edge_9_10_0_0 edge_9_11_0_0 edge_9_12_0_0
 edge_9_13_0_0 edge_9_14_0_0 edge_9_16_0_0 edge_9_17_0_0 edge_9_18_0_0
 edge_9_19_0_0 edge_10_6_0_0 edge_10_8_0_0 edge_10_9_0_0 edge_10_11_0_0
 edge_11_1_0_0 edge_11_3_0_0 edge_11_4_0_0 edge_11_5_0_0 edge_11_6_0_0
 edge_11_7_0_0 edge_11_8_0_0 edge_11_9_0_0 edge_11_10_0_0 edge_11_12_0_0
 edge_11_13_0_0 edge_11_14_0_0 edge_11_16_0_0 edge_11_17_0_0 edge_11_18_0_0
 edge_11_19_0_0 edge_12_9_0_0 edge_12_10_0_0 edge_12_11_0_0 edge_12_13_0_0
 edge_12_14_0_0 edge_12_16_0_0 edge_12_18_0_0 edge_13_12_0_0 edge_13_14_0_0
 edge_13_18_0_0 edge_14_7_0_0 edge_14_9_0_0 edge_14_11_0_0 edge_14_12_0_0
 edge_14_13_0_0 edge_14_16_0_0 edge_14_17_0_0 edge_14_18_0_0 edge_14_19_0_0
 edge_16_1_0_0 edge_16_3_0_0 edge_16_4_0_0 edge_16_5_0_0 edge_16_6_0_0
 edge_16_7_0_0 edge_16_8_0_0 edge_16_9_0_0 edge_16_11_0_0 edge_16_12_0_0
 edge_16_13_0_0 edge_16_14_0_0 edge_16_17_0_0 edge_16_18_0_0 edge_16_19_0_0
 edge_17_3_0_0 edge_17_14_0_0 edge_17_16_0_0 edge_17_18_0_0 edge_17_19_0_0
 edge_18_1_0_0 edge_18_3_0_0 edge_18_4_0_0 edge_18_5_0_0 edge_18_6_0_0
 edge_18_7_0_0 edge_18_8_0_0 edge_18_9_0_0 edge_18_11_0_0 edge_18_12_0_0
 edge_18_13_0_0 edge_18_14_0_0 edge_18_16_0_0 edge_18_17_0_0 edge_18_19_0_0
 edge_19_17_0_0 edge_19_18_0_0
End
